51 6
11 12 11 11 10 10
1 0 0 0 0 0 0 3 2 3 4
2 0 5 0 1 0 0 1 7
1 0 0 0 0 9 0 2 6 8
2 10 0 0 6 6 1 1 5
6 1 0 0 0 9 0 1 10
7 0 0 7 0 0 3 3 9 11 12
1 0 0 0 0 3 0 1 51
1 0 10 2 0 0 0 1 51
7 6 0 8 0 0 0 2 13 14
2 3 2 0 0 0 0 1 15
1 0 2 9 0 0 5 1 16
2 1 0 5 0 8 0 1 51
1 8 0 10 0 0 5 1 17
7 7 6 8 0 0 1 1 51
6 10 0 0 0 5 5 2 19 20
1 5 0 0 0 4 0 1 18
5 8 0 1 6 0 5 2 21 24
1 0 0 0 0 0 0 1 23
3 0 5 6 2 0 0 1 51
1 0 9 6 8 0 1 1 22
3 0 0 0 8 5 0 3 25 26 27
4 3 0 6 0 4 0 1 28
2 0 3 0 0 0 8 1 51
1 9 0 3 0 2 0 1 51
1 0 0 4 0 0 0 1 29
1 0 6 7 3 0 0 1 31
7 0 7 0 0 0 0 1 32
1 0 8 0 1 2 8 1 30
1 6 0 0 8 0 9 1 35
2 4 8 0 0 8 0 1 34
1 0 9 0 8 0 9 1 51
9 6 8 6 0 0 0 2 33 36
8 0 10 0 0 7 4 2 38 39
1 0 3 0 0 0 10 1 37
1 0 0 0 10 0 0 1 40
3 0 0 3 0 8 0 1 51
3 0 0 0 5 0 0 2 42 44
6 3 6 0 0 0 0 2 41 43
5 1 0 10 0 0 1 1 51
1 6 9 9 5 0 0 1 51
1 6 10 0 0 0 10 1 47
1 0 0 0 10 0 0 1 48
8 0 0 0 5 4 0 4 45 46 47 48
1 1 0 0 5 0 0 1 48
4 0 0 0 8 3 0 1 50
5 9 0 6 6 7 0 1 50
1 2 2 0 2 6 0 1 49
8 0 5 3 8 5 0 1 49
3 8 8 9 2 2 0 1 51
1 0 0 0 7 5 5 1 51
0 0 0 0 0 0 0 0
